%%% static parameters %%%
timespan = 1;
Fact = [2];
Distr1 = [15];
Distr2 = [20];
Clients_N = [100];
Demand_W = [15];
Lt0 = [4];
Lt1 = [4];
SS_ = [0.85];
DS_D = [15];
K = [200];
MA = [500];
%%% dynamic parameters %%%
lost_ratio_sales_ret_th = 0.1644283289049476;
lost_ratio_sales_ret_w = 27;
lost_ratio_sales_dis_th = 0.15816856711974928;
lost_ratio_sales_dis_w = 90;
lost_ratio_sales_fac_th = 0.10129047445289113;
lost_ratio_sales_fac_w = 62;
stock_customer_MA_mean_relative_th = 0.2679993140461736;
stock_customer_MA_mean_relative_w = 97;
stock_distributor_MA_mean_relative_th = 0.7445477778203845;
stock_distributor_MA_mean_relative_w = 94;
stock_retailer_MA_mean_relative_th = 0.14601916342144527;
stock_retailer_MA_mean_relative_w = 88;
stock_factory_MA_mean_relative_th = 0.04429297781159325;
stock_factory_MA_mean_relative_w = 70;
